c FILE /home/rafael/Documents/HappySet/MIHS/inputs/happygen/output/graph_d_regular_k2_p0.4_v50_20241127_082548.txt
c SOURCE This is a d-regular graph formed for the happy graph colouring problem.
c DESCRIPTION It was generated using the problem generator of Rhyd Lewis
c
c GRAPH STATS
c Seed                             = 2017438229
c Number of Nodes                  = 50
c Number of colours k              = 2
c Number of pre-assignments        = 20
c Degree of all vertices           = 6
c Density                          = 0.122449
c 
c The degrees of nodes 1 to 50, respectively, are as follows 
c [6, 6, 6, 6, 6, 6, 6, 6, 6, 6, 6, 6, 6, 6, 6, 6, 6, 6, 6, 6, 6, 6, 6, 6, 6, 6, 
c  6, 6, 6, 6, 6, 6, 6, 6, 6, 6, 6, 6, 6, 6, 6, 6, 6, 6, 6, 6, 6, 6, 6, 6] 
c  
p edge 50 150 2
e 1 10
e 1 19
e 1 25
e 1 36
e 1 39
e 1 48
e 2 8
e 2 11
e 2 29
e 2 37
e 2 42
e 2 47
e 3 14
e 3 27
e 3 34
e 3 38
e 3 39
e 3 44
e 4 16
e 4 19
e 4 25
e 4 32
e 4 43
e 4 44
e 5 11
e 5 19
e 5 33
e 5 35
e 5 36
e 5 47
e 6 26
e 6 28
e 6 31
e 6 36
e 6 37
e 6 38
e 7 13
e 7 14
e 7 16
e 7 20
e 7 21
e 7 32
e 8 16
e 8 20
e 8 22
e 8 27
e 8 33
e 9 10
e 9 29
e 9 40
e 9 46
e 9 47
e 9 49
e 10 19
e 10 24
e 10 42
e 10 47
e 11 13
e 11 15
e 11 37
e 11 45
e 12 18
e 12 33
e 12 34
e 12 43
e 12 45
e 12 46
e 13 19
e 13 30
e 13 48
e 13 49
e 14 26
e 14 27
e 14 35
e 14 44
e 15 16
e 15 22
e 15 25
e 15 48
e 15 49
e 16 26
e 16 30
e 17 23
e 17 25
e 17 26
e 17 44
e 17 45
e 17 50
e 18 20
e 18 23
e 18 28
e 18 29
e 18 39
e 19 37
e 20 30
e 20 44
e 20 50
e 21 26
e 21 31
e 21 38
e 21 45
e 21 48
e 22 25
e 22 38
e 22 40
e 22 46
e 23 28
e 23 34
e 23 41
e 23 43
e 24 26
e 24 31
e 24 32
e 24 33
e 24 40
e 25 27
e 27 31
e 27 46
e 28 32
e 28 42
e 28 50
e 29 36
e 29 39
e 29 45
e 30 33
e 30 35
e 30 47
e 31 38
e 31 50
e 32 49
e 32 50
e 33 49
e 34 41
e 34 42
e 34 43
e 35 37
e 35 42
e 35 46
e 36 42
e 36 43
e 37 41
e 38 50
e 39 44
e 39 47
e 40 41
e 40 46
e 40 48
e 41 48
e 41 49
e 43 45
n 5 1
n 7 1
n 8 1
n 10 1
n 11 1
n 19 1
n 20 1
n 21 1
n 25 2
n 28 1
n 29 1
n 30 1
n 33 1
n 38 1
n 39 1
n 42 1
n 43 1
n 44 1
n 46 1
n 49 1
